13 62
1 2 1
1 3 1
1 4 1
1 5 1
1 6 1
1 7 1
1 8 1
1 9 0
1 10 1
1 11 1
1 12 0
1 13 1
2 3 0
2 4 1
2 5 0
2 6 1
2 7 1
2 8 1
2 9 1
2 10 1
2 11 1
2 12 0
2 13 1
3 4 1
3 5 1
3 6 0
3 7 1
3 8 1
3 9 1
3 10 0
3 11 1
3 12 1
3 13 1
4 5 1
4 6 0
4 7 0
4 8 1
4 9 1
4 10 1
4 11 1
4 12 0
4 13 1
5 6 1
5 7 1
5 8 1
5 9 1
5 10 0
5 11 1
5 12 0
5 13 1
6 7 0
6 8 1
6 9 1
6 10 1
6 11 1
6 12 0
6 13 1
7 8 1
7 9 1
7 10 1
7 11 0
7 12 1
7 13 0
8 9 1
8 10 1
8 11 1
8 12 1
8 13 1
9 10 1
9 11 1
9 12 1
9 13 1
10 11 1
10 12 1
10 13 1
11 12 1
11 13 1
12 13 1
